Route #1: 1 14 10 17 18 7 20 2 5 1 
Route #2: 1 1 6 19 15 9 8 31 1 
Route #3: 1 13 28 27 16 25 21 1 
Route #4: 1 12 32 3 1 
Route #5: 1 4 22 26 23 24 1 
Route #6: 1 29 11 30 1 

Cost 1033.76
Time 0.1642


 * Another infos *

 Iterations: 33 Time: 0.1642 sec - 0.0027 min - 0.0000 horas
0.0000 h 0.0027 min
Problem dimension: 33
